892
1   1   0    71   0 71 60 70 20 30 0
1   2   0    132  0 67 46 35 14 19 34 0
1   3   0    20   0 75 0
2   1   0    69   0 13 52 27 45 0
2   2   0    0    0 0
2   3   0    60   0 48 47 5 0
3   1   0    120  0 59 66 11 53 0
3   2   0    137  0 38 65 31 39 72 10 58 7 0
3   3   0    0    0 0
4   1   0    116  0 9 40 12 26 17 0
4   2   0    139  0 32 44 3 24 18 50 55 25 0
4   3   0    124  0 23 56 41 42 43 1 63 16 0
5   1   0    132  0 64 22 28 2 68 33 0
5   2   0    105  0 62 74 21 37 36 69 61 0
5   3   0    139  0 73 29 15 57 54 8 4 6 51 49 0